c turning on binary mode checking
c parsing input formula with 259840 variables and 1039929 clauses
c finished parsing, read 23273158 bytes from proof file
c detected empty clause; start verification via backward checking
c 5368 of 1039929 clauses in core                            
c 5179 of 605998 lemmas in core using 33290 resolution steps
c 0 RAT lemmas in core; 152 redundant literals in core lemmas
s VERIFIED
c verification time: 2.742 seconds
